
  22   10
  10   10   10   10   10   10   10   10   10   10

   0   0   0   0   0   0   0   0   0   0   0   3 2 4 5 
   7  10  10  10  10  10  10  10  10  10  10   1 3 
   6  10  10  10  10  10  10  10  10  10  10   4 15 12 10 6 
   2  10  10  10  10  10  10  10  10  10  10   6 13 12 11 10 9 8 
   2  10  10  10  10  10  10  10  10  10  10   4 12 9 8 7 
   8  10  10  10  10  10  10  10  10  10  10   2 9 7 
   2  10  10  10  10  10  10  10  10  10  10   2 13 11 
   5  10  10  10  10  10  10  10  10  10  10   2 19 15 
   1  10  10  10  10  10  10  10  10  10  10   2 19 16 
   8  10  10  10  10  10  10  10  10  10  10   2 19 16 
   2  10  10  10  10  10  10  10  10  10  10   1 14 
   3  10  10  10  10  10  10  10  10  10  10   1 14 
   3  10  10  10  10  10  10  10  10  10  10   2 19 17 
   1  10  10  10  10  10  10  10  10  10  10   1 16 
   2  10  10  10  10  10  10  10  10  10  10   1 16 
   2  10  10  10  10  10  10  10  10  10  10   1 17 
   5  10  10  10  10  10  10  10  10  10  10   2 20 18 
   6  10  10  10  10  10  10  10  10  10  10   1 21 
   5  10  10  10  10  10  10  10  10  10  10   1 20 
   3  10  10  10  10  10  10  10  10  10  10   1 22
   8  10  10  10  10  10  10  10  10  10  10   1 22
   0   0   0   0   0   0   0   0   0   0   0   0 
